param nRows        :=   3;
param cachierCount :=   1;
param cachierWidth := 2.5;

set ProductGroups :=  Group1 Group2 Group3 Group4 Group5 Group6 Group7 Group8;


param space :=
Group1	0.04
Group2	0.62
Group3	0.13
Group4	1.28
Group5	0.56
Group6	0.21
Group7	1.39
Group8	1.47
;

